1614116
38, 67, 7, 11, 66, 26, 55, 34, 46, 43, 22, 31, 14, 52, 33, 57, 18, 10, 44, 37, 53, 39, 62, 51, 35, 68, 50, 28, 16, 63, 59, 36, 8, 15, 58, 9, 27, 17, 45, 65, 2, 48, 4, 20, 47, 13, 54, 1, 61, 24, 21, 3, 42, 12, 32, 56, 40, 5, 19, 49, 23, 60, 29, 25, 30, 41, 6, 64
